NAME : PR225C
TYPE : PDTSP
DIMENSION : 225
EDGE_WEIGHT_TYPE : EUC_2D
NODE_COORD_SECTION
1 16000 1100
2 15000 1200
3 14000 1200
4 14000 1200
5 14000 1200
6 14000 1200
7 14000 1500
8 14000 1200
9 13000 1200
10 13000 1600
11 13000 1800
12 13000 1900
13 13000 1200
14 13000 1200
15 13000 1700
16 13000 1700
17 12000 1300
18 11000 1600
19 9700 1500
20 8000 1100
21 7000 1200
22 6900 1200
23 6800 1200
24 6500 1200
25 6400 1200
26 6300 1200
27 6300 1500
28 6000 1200
29 5800 1200
30 5800 1600
31 5800 1800
32 5800 1900
33 5700 1200
34 5500 1200
35 5400 1700
36 5000 1700
37 4400 1300
38 3800 1600
39 2100 1500
40 2100 3800
41 3800 2300
42 4400 3300
43 5000 2200
44 5400 2200
45 5500 2500
46 5500 3000
47 5800 2000
48 6300 2200
49 8000 2200
50 8700 2500
51 8700 2700
52 8700 2800
53 8700 2800
54 8700 3000
55 8700 3000
56 8700 3200
57 8700 3300
58 8700 3400
59 8700 3500
60 8700 3600
61 8700 3700
62 8700 3800
63 9700 3800
64 11000 2300
65 12000 3300
66 13000 2200
67 13000 2200
68 13000 2500
69 13000 3000
70 13000 2000
71 14000 2200
72 16000 2200
73 16000 2500
74 16000 2700
75 16000 2800
76 16000 2800
77 16000 3000
78 16000 3000
79 16000 3200
80 16000 3300
81 16000 3400
82 16000 3500
83 16000 3600
84 16000 3700
85 16000 3800
86 4900 6500
87 4900 6700
88 4900 6600
89 4900 6800
90 4900 6900
91 4900 7000
92 4900 7100
93 4900 7200
94 5000 6500
95 5000 6600
96 5000 6700
97 5000 6800
98 5000 6900
99 5000 7000
100 5000 7100
101 5000 7200
102 13000 6500
103 13000 6700
104 13000 6600
105 13000 6800
106 13000 6900
107 13000 7000
108 13000 7100
109 13000 7200
110 13000 6500
111 13000 6600
112 13000 6700
113 13000 6800
114 13000 6900
115 13000 7000
116 13000 7100
117 13000 7200
118 13000 8400
119 13000 8600
120 13000 8600
121 13000 8800
122 13000 8900
123 13000 9000
124 13000 9100
125 13000 8400
126 13000 8600
127 13000 8600
128 13000 8800
129 13000 9000
130 13000 8900
131 13000 9100
132 10000 8800
133 10000 8800
134 9900 8800
135 9800 8800
136 5000 8400
137 5000 8600
138 5000 8600
139 5000 8800
140 5000 8900
141 5000 9000
142 5000 9100
143 4900 8400
144 4900 8600
145 4900 8600
146 4900 8800
147 4900 9000
148 4900 8900
149 4900 9100
150 2400 8800
151 2300 8800
152 2200 8800
153 2100 8800
154 1900 12000
155 2000 12000
156 2100 12000
157 2400 12000
158 2500 12000
159 2600 12000
160 2700 12000
161 2800 12000
162 2900 12000
163 3000 12000
164 3100 12000
165 3400 12000
166 3500 12000
167 3600 12000
168 3700 12000
169 3800 12000
170 4100 12000
171 4200 12000
172 4300 12000
173 4400 12000
174 4500 12000
175 4600 12000
176 4700 12000
177 4800 12000
178 4900 12000
179 5000 12000
180 5400 12000
181 5500 12000
182 5600 12000
183 5700 12000
184 5800 12000
185 5900 12000
186 6000 12000
187 6100 12000
188 6200 12000
189 6300 12000
190 9500 12000
191 9600 12000
192 9700 12000
193 10000 12000
194 10000 12000
195 10000 12000
196 10000 12000
197 10000 12000
198 11000 12000
199 11000 12000
200 11000 12000
201 11000 12000
202 11000 12000
203 11000 12000
204 11000 12000
205 11000 12000
206 12000 12000
207 12000 12000
208 12000 12000
209 12000 12000
210 12000 12000
211 12000 12000
212 12000 12000
213 12000 12000
214 13000 12000
215 13000 12000
216 13000 12000
217 13000 12000
218 13000 12000
219 13000 12000
220 13000 12000
221 14000 12000
222 14000 12000
223 14000 12000
224 14000 12000
225 14000 12000
PICKUP_AND_DELIVERY_SECTION
1 0 0 0 0 0 0
2 0 0 0 0 0 152
3 0 0 0 0 92 0
4 0 0 0 0 0 25
5 0 0 0 0 0 156
6 0 0 0 0 127 0
7 0 0 0 0 33 0
8 0 0 0 0 197 0
9 0 0 0 0 138 0
10 0 0 0 0 62 0
11 0 0 0 0 0 164
12 0 0 0 0 0 150
13 0 0 0 0 0 67
14 0 0 0 0 49 0
15 0 0 0 0 0 98
16 0 0 0 0 0 173
17 0 0 0 0 0 75
18 0 0 0 0 0 52
19 0 0 0 0 136 0
20 0 0 0 0 77 0
21 0 0 0 0 220 0
22 0 0 0 0 0 110
23 0 0 0 0 0 66
24 0 0 0 0 0 221
25 0 0 0 0 4 0
26 0 0 0 0 45 0
27 0 0 0 0 0 72
28 0 0 0 0 103 0
29 0 0 0 0 0 30
30 0 0 0 0 29 0
31 0 0 0 0 0 116
32 0 0 0 0 196 0
33 0 0 0 0 0 7
34 0 0 0 0 88 0
35 0 0 0 0 0 147
36 0 0 0 0 0 194
37 0 0 0 0 0 78
38 0 0 0 0 0 139
39 0 0 0 0 212 0
40 0 0 0 0 0 115
41 0 0 0 0 0 176
42 0 0 0 0 80 0
43 0 0 0 0 123 0
44 0 0 0 0 54 0
45 0 0 0 0 0 26
46 0 0 0 0 0 60
47 0 0 0 0 166 0
48 0 0 0 0 0 64
49 0 0 0 0 0 14
50 0 0 0 0 105 0
51 0 0 0 0 0 178
52 0 0 0 0 18 0
53 0 0 0 0 71 0
54 0 0 0 0 0 44
55 0 0 0 0 0 181
56 0 0 0 0 167 0
57 0 0 0 0 223 0
58 0 0 0 0 0 175
59 0 0 0 0 120 0
60 0 0 0 0 46 0
61 0 0 0 0 203 0
62 0 0 0 0 0 10
63 0 0 0 0 0 131
64 0 0 0 0 48 0
65 0 0 0 0 133 0
66 0 0 0 0 23 0
67 0 0 0 0 13 0
68 0 0 0 0 0 104
69 0 0 0 0 0 96
70 0 0 0 0 142 0
71 0 0 0 0 0 53
72 0 0 0 0 27 0
73 0 0 0 0 204 0
74 0 0 0 0 185 0
75 0 0 0 0 17 0
76 0 0 0 0 0 102
77 0 0 0 0 0 20
78 0 0 0 0 37 0
79 0 0 0 0 0 207
80 0 0 0 0 0 42
81 0 0 0 0 213 0
82 0 0 0 0 0 182
83 0 0 0 0 0 144
84 0 0 0 0 0 132
85 0 0 0 0 0 86
86 0 0 0 0 85 0
87 0 0 0 0 200 0
88 0 0 0 0 0 34
89 0 0 0 0 0 109
90 0 0 0 0 0 130
91 0 0 0 0 148 0
92 0 0 0 0 0 3
93 0 0 0 0 0 189
94 0 0 0 0 0 125
95 0 0 0 0 118 0
96 0 0 0 0 69 0
97 0 0 0 0 101 0
98 0 0 0 0 15 0
99 0 0 0 0 140 0
100 0 0 0 0 0 179
101 0 0 0 0 0 97
102 0 0 0 0 76 0
103 0 0 0 0 0 28
104 0 0 0 0 68 0
105 0 0 0 0 0 50
106 0 0 0 0 0 137
107 0 0 0 0 0 155
108 0 0 0 0 215 0
109 0 0 0 0 89 0
110 0 0 0 0 22 0
111 0 0 0 0 0 222
112 0 0 0 0 0 190
113 0 0 0 0 216 0
114 0 0 0 0 0 211
115 0 0 0 0 40 0
116 0 0 0 0 31 0
117 0 0 0 0 0 184
118 0 0 0 0 0 95
119 0 0 0 0 121 0
120 0 0 0 0 0 59
121 0 0 0 0 0 119
122 0 0 0 0 0 177
123 0 0 0 0 0 43
124 0 0 0 0 0 165
125 0 0 0 0 94 0
126 0 0 0 0 145 0
127 0 0 0 0 0 6
128 0 0 0 0 0 224
129 0 0 0 0 0 199
130 0 0 0 0 90 0
131 0 0 0 0 63 0
132 0 0 0 0 84 0
133 0 0 0 0 0 65
134 0 0 0 0 0 192
135 0 0 0 0 0 186
136 0 0 0 0 0 19
137 0 0 0 0 106 0
138 0 0 0 0 0 9
139 0 0 0 0 38 0
140 0 0 0 0 0 99
141 0 0 0 0 169 0
142 0 0 0 0 0 70
143 0 0 0 0 154 0
144 0 0 0 0 83 0
145 0 0 0 0 0 126
146 0 0 0 0 0 193
147 0 0 0 0 35 0
148 0 0 0 0 0 91
149 0 0 0 0 163 0
150 0 0 0 0 12 0
151 0 0 0 0 0 206
152 0 0 0 0 2 0
153 0 0 0 0 195 0
154 0 0 0 0 0 143
155 0 0 0 0 107 0
156 0 0 0 0 5 0
157 0 0 0 0 0 160
158 0 0 0 0 187 0
159 0 0 0 0 0 172
160 0 0 0 0 157 0
161 0 0 0 0 208 0
162 0 0 0 0 0 225
163 0 0 0 0 0 149
164 0 0 0 0 11 0
165 0 0 0 0 124 0
166 0 0 0 0 0 47
167 0 0 0 0 0 56
168 0 0 0 0 210 0
169 0 0 0 0 0 141
170 0 0 0 0 0 191
171 0 0 0 0 0 188
172 0 0 0 0 159 0
173 0 0 0 0 16 0
174 0 0 0 0 209 0
175 0 0 0 0 58 0
176 0 0 0 0 41 0
177 0 0 0 0 122 0
178 0 0 0 0 51 0
179 0 0 0 0 100 0
180 0 0 0 0 219 0
181 0 0 0 0 55 0
182 0 0 0 0 82 0
183 0 0 0 0 0 218
184 0 0 0 0 117 0
185 0 0 0 0 0 74
186 0 0 0 0 135 0
187 0 0 0 0 0 158
188 0 0 0 0 171 0
189 0 0 0 0 93 0
190 0 0 0 0 112 0
191 0 0 0 0 170 0
192 0 0 0 0 134 0
193 0 0 0 0 146 0
194 0 0 0 0 36 0
195 0 0 0 0 0 153
196 0 0 0 0 0 32
197 0 0 0 0 0 8
198 0 0 0 0 202 0
199 0 0 0 0 129 0
200 0 0 0 0 0 87
201 0 0 0 0 0 214
202 0 0 0 0 0 198
203 0 0 0 0 0 61
204 0 0 0 0 0 73
205 0 0 0 0 217 0
206 0 0 0 0 151 0
207 0 0 0 0 79 0
208 0 0 0 0 0 161
209 0 0 0 0 0 174
210 0 0 0 0 0 168
211 0 0 0 0 114 0
212 0 0 0 0 0 39
213 0 0 0 0 0 81
214 0 0 0 0 201 0
215 0 0 0 0 0 108
216 0 0 0 0 0 113
217 0 0 0 0 0 205
218 0 0 0 0 183 0
219 0 0 0 0 0 180
220 0 0 0 0 0 21
221 0 0 0 0 24 0
222 0 0 0 0 111 0
223 0 0 0 0 0 57
224 0 0 0 0 128 0
225 0 0 0 0 162 0
DEPOT_SECTION
1 
-1
EOF
